benchmarks/or-tools/instances/a5/rand-5-12-12-200-p12442-22_ext_glb.res
REGULAR
REGULAR
REGULAR
REGULAR
REGULAR
REGULAR
REGULAR
REGULAR
REGULAR
REGULAR
REGULAR
REGULAR
REGULAR
REGULAR
REGULAR
REGULAR
REGULAR
REGULAR
REGULAR
REGULAR
REGULAR
REGULAR
REGULAR
REGULAR
REGULAR
REGULAR
REGULAR
REGULAR
REGULAR
REGULAR
REGULAR
REGULAR
REGULAR
REGULAR
REGULAR
REGULAR
REGULAR
REGULAR
REGULAR
REGULAR
REGULAR
REGULAR
REGULAR
REGULAR
REGULAR
REGULAR
REGULAR
REGULAR
REGULAR
REGULAR
REGULAR
REGULAR
REGULAR
REGULAR
REGULAR
REGULAR
REGULAR
REGULAR
REGULAR
REGULAR
REGULAR
REGULAR
REGULAR
REGULAR
REGULAR
REGULAR
REGULAR
REGULAR
REGULAR
REGULAR
REGULAR
REGULAR
REGULAR
REGULAR
REGULAR
REGULAR
REGULAR
REGULAR
REGULAR
REGULAR
REGULAR
REGULAR
REGULAR
REGULAR
REGULAR
REGULAR
REGULAR
REGULAR
REGULAR
REGULAR
REGULAR
REGULAR
REGULAR
REGULAR
REGULAR
REGULAR
REGULAR
REGULAR
REGULAR
REGULAR
REGULAR
REGULAR
REGULAR
REGULAR
REGULAR
REGULAR
REGULAR
REGULAR
REGULAR
REGULAR
REGULAR
REGULAR
REGULAR
REGULAR
REGULAR
REGULAR
REGULAR
REGULAR
REGULAR
REGULAR
REGULAR
REGULAR
REGULAR
REGULAR
REGULAR
REGULAR
REGULAR
REGULAR
REGULAR
REGULAR
REGULAR
REGULAR
REGULAR
REGULAR
REGULAR
REGULAR
REGULAR
REGULAR
REGULAR
REGULAR
REGULAR
REGULAR
REGULAR
REGULAR
REGULAR
REGULAR
REGULAR
REGULAR
REGULAR
REGULAR
REGULAR
REGULAR
REGULAR
REGULAR
REGULAR
REGULAR
REGULAR
REGULAR
REGULAR
REGULAR
REGULAR
REGULAR
REGULAR
REGULAR
REGULAR
REGULAR
REGULAR
REGULAR
REGULAR
REGULAR
REGULAR
REGULAR
REGULAR
REGULAR
REGULAR
REGULAR
REGULAR
REGULAR
REGULAR
REGULAR
REGULAR
REGULAR
REGULAR
REGULAR
REGULAR
REGULAR
REGULAR
REGULAR
REGULAR
REGULAR
REGULAR
REGULAR
REGULAR
REGULAR
REGULAR
REGULAR
REGULAR
REGULAR
REGULAR
REGULAR
=====UNSATISFIABLE=====

%%  runtime:       1:14.948 (74948.713 ms)
%%  solvetime:     28.467 (28467.924 ms)
%%  solutions:     0
%%  variables:     12
%%  propagators:   200
%%  propagations:  342167
%%  nodes:         2489
%%  failures:      1245
%%  restarts:      0
%%  peak depth:    10

GECODE TUPLESET
GECODE TUPLESET
GECODE TUPLESET
GECODE TUPLESET
GECODE TUPLESET
GECODE TUPLESET
GECODE TUPLESET
GECODE TUPLESET
GECODE TUPLESET
GECODE TUPLESET
GECODE TUPLESET
GECODE TUPLESET
GECODE TUPLESET
GECODE TUPLESET
GECODE TUPLESET
GECODE TUPLESET
GECODE TUPLESET
GECODE TUPLESET
GECODE TUPLESET
GECODE TUPLESET
GECODE TUPLESET
GECODE TUPLESET
GECODE TUPLESET
GECODE TUPLESET
GECODE TUPLESET
GECODE TUPLESET
GECODE TUPLESET
GECODE TUPLESET
GECODE TUPLESET
GECODE TUPLESET
GECODE TUPLESET
GECODE TUPLESET
GECODE TUPLESET
GECODE TUPLESET
GECODE TUPLESET
GECODE TUPLESET
GECODE TUPLESET
GECODE TUPLESET
GECODE TUPLESET
GECODE TUPLESET
GECODE TUPLESET
GECODE TUPLESET
GECODE TUPLESET
GECODE TUPLESET
GECODE TUPLESET
GECODE TUPLESET
GECODE TUPLESET
GECODE TUPLESET
GECODE TUPLESET
GECODE TUPLESET
GECODE TUPLESET
GECODE TUPLESET
GECODE TUPLESET
GECODE TUPLESET
GECODE TUPLESET
GECODE TUPLESET
GECODE TUPLESET
GECODE TUPLESET
GECODE TUPLESET
GECODE TUPLESET
GECODE TUPLESET
GECODE TUPLESET
GECODE TUPLESET
GECODE TUPLESET
GECODE TUPLESET
GECODE TUPLESET
GECODE TUPLESET
GECODE TUPLESET
GECODE TUPLESET
GECODE TUPLESET
GECODE TUPLESET
GECODE TUPLESET
GECODE TUPLESET
GECODE TUPLESET
GECODE TUPLESET
GECODE TUPLESET
GECODE TUPLESET
GECODE TUPLESET
GECODE TUPLESET
GECODE TUPLESET
GECODE TUPLESET
GECODE TUPLESET
GECODE TUPLESET
GECODE TUPLESET
GECODE TUPLESET
GECODE TUPLESET
GECODE TUPLESET
GECODE TUPLESET
GECODE TUPLESET
GECODE TUPLESET
GECODE TUPLESET
GECODE TUPLESET
GECODE TUPLESET
GECODE TUPLESET
GECODE TUPLESET
GECODE TUPLESET
GECODE TUPLESET
GECODE TUPLESET
GECODE TUPLESET
GECODE TUPLESET
GECODE TUPLESET
GECODE TUPLESET
GECODE TUPLESET
GECODE TUPLESET
GECODE TUPLESET
GECODE TUPLESET
GECODE TUPLESET
GECODE TUPLESET
GECODE TUPLESET
GECODE TUPLESET
GECODE TUPLESET
GECODE TUPLESET
GECODE TUPLESET
GECODE TUPLESET
GECODE TUPLESET
GECODE TUPLESET
GECODE TUPLESET
GECODE TUPLESET
GECODE TUPLESET
GECODE TUPLESET
GECODE TUPLESET
GECODE TUPLESET
GECODE TUPLESET
GECODE TUPLESET
GECODE TUPLESET
GECODE TUPLESET
GECODE TUPLESET
GECODE TUPLESET
GECODE TUPLESET
GECODE TUPLESET
GECODE TUPLESET
GECODE TUPLESET
GECODE TUPLESET
GECODE TUPLESET
GECODE TUPLESET
GECODE TUPLESET
GECODE TUPLESET
GECODE TUPLESET
GECODE TUPLESET
GECODE TUPLESET
GECODE TUPLESET
GECODE TUPLESET
GECODE TUPLESET
GECODE TUPLESET
GECODE TUPLESET
GECODE TUPLESET
GECODE TUPLESET
GECODE TUPLESET
GECODE TUPLESET
GECODE TUPLESET
GECODE TUPLESET
GECODE TUPLESET
GECODE TUPLESET
GECODE TUPLESET
GECODE TUPLESET
GECODE TUPLESET
GECODE TUPLESET
GECODE TUPLESET
GECODE TUPLESET
GECODE TUPLESET
GECODE TUPLESET
GECODE TUPLESET
GECODE TUPLESET
GECODE TUPLESET
GECODE TUPLESET
GECODE TUPLESET
GECODE TUPLESET
GECODE TUPLESET
GECODE TUPLESET
GECODE TUPLESET
GECODE TUPLESET
GECODE TUPLESET
GECODE TUPLESET
GECODE TUPLESET
GECODE TUPLESET
GECODE TUPLESET
GECODE TUPLESET
GECODE TUPLESET
GECODE TUPLESET
GECODE TUPLESET
GECODE TUPLESET
GECODE TUPLESET
GECODE TUPLESET
GECODE TUPLESET
GECODE TUPLESET
GECODE TUPLESET
GECODE TUPLESET
GECODE TUPLESET
GECODE TUPLESET
GECODE TUPLESET
GECODE TUPLESET
GECODE TUPLESET
GECODE TUPLESET
GECODE TUPLESET
GECODE TUPLESET
GECODE TUPLESET
GECODE TUPLESET
GECODE TUPLESET
GECODE TUPLESET
GECODE TUPLESET
=====UNSATISFIABLE=====

%%  runtime:       19.939 (19939.460 ms)
%%  solvetime:     15.815 (15815.970 ms)
%%  solutions:     0
%%  variables:     12
%%  propagators:   200
%%  propagations:  306781
%%  nodes:         2541
%%  failures:      1271
%%  restarts:      0
%%  peak depth:    10

